7
0, 408, 718, 419, 129, 553, 639
408, 0, 463, 432, 389, 882, 435
718, 463, 0, 386, 616, 945, 100
419, 432, 386, 0, 291, 564, 287
129, 389, 616, 291, 0, 501, 530
553, 882, 945, 564, 501, 0, 845
639, 435, 100, 287, 530, 845, 0
